minizinc/sudoku_problems2/sudoku_p12.dzn
%
% sudoku_p12.dzn
% See http://www.hakank.org/minizinc/sudoku_gcc.mzn
% 
% This problem is problem 12 from
% Gecode's sudoku.cpp
% http://www.gecode.org/gecode-doc-latest/sudoku_8cpp-source.html
% 
x = array2d(1..n, 1..n, [   
% Puzzle 7 from http://www.sudoku.org.uk/bifurcation.htm
% 12
  8,  _,  _,  _,  _,  1,  _,  4,  _,
  2,  _,  6,  _,  9,  _,  _,  1,  _,
  _,  _,  9,  _,  _,  6,  _,  8,  _,
  1,  2,  4,  _,  _,  _,  _,  _,  9,
  _,  _,  _,  _,  _,  _,  _,  _,  _,
  9,  _,  _,  _,  _,  _,  8,  2,  4,
  _,  5,  _,  4,  _,  _,  1,  _,  _,
  _,  8,  _,  _,  7,  _,  2,  _,  5,
  _,  9,  _,  5,  _,  _,  _,  _,  7
]);

n = 9;


